Al
 1.0000000000000000
    40.0000000000000000    0.0000000000000000    0.0000000000000000
     0.0000000000000000   40.0000000000000000    0.0000000000000000
     0.0000000000000000    0.0000000000000000   20.1946484659124970
 Al 
 860
Direct
  0.1718369624289218  0.3232968259232656  0.1500000000000000
  0.1718369624289218  0.3737834470880470  0.0500000000000000
  0.1718369624289218  0.4242700682528281  0.1500000000000000
  0.1718369624289218  0.4747566894176093  0.0500000000000000
  0.1718369624289218  0.5252433105823906  0.1500000000000000
  0.1718369624289218  0.5757299317471719  0.0500000000000000
  0.1718369624289218  0.6262165529119531  0.1500000000000000
  0.1718369624289218  0.6767031740767343  0.0500000000000000
  0.2223235835937030  0.2728102047584844  0.1500000000000000
  0.2728102047584843  0.2223235835937032  0.1500000000000000
  0.2728102047584843  0.2728102047584844  0.0500000000000000
  0.2223235835937030  0.3232968259232656  0.0500000000000000
  0.2223235835937030  0.3737834470880470  0.1500000000000000
  0.2728102047584843  0.3232968259232656  0.1500000000000000
  0.2728102047584843  0.3737834470880470  0.0500000000000000
  0.2223235835937030  0.4242700682528281  0.0500000000000000
  0.2223235835937030  0.4747566894176093  0.1500000000000000
  0.2728102047584843  0.4242700682528281  0.1500000000000000
  0.2728102047584843  0.4747566894176093  0.0500000000000000
  0.2223235835937031  0.5252433105823906  0.0500000000000000
  0.2223235835937031  0.5757299317471719  0.1500000000000000
  0.2728102047584843  0.5252433105823906  0.1500000000000000
  0.2728102047584843  0.5757299317471719  0.0500000000000000
  0.2223235835937031  0.6262165529119531  0.0500000000000000
  0.2223235835937031  0.6767031740767343  0.1500000000000000
  0.2728102047584843  0.6262165529119531  0.1500000000000000
  0.2728102047584843  0.6767031740767343  0.0500000000000000
  0.2223235835937031  0.7271897952415156  0.0500000000000000
  0.2728102047584843  0.7271897952415156  0.1500000000000000
  0.2728102047584843  0.7776764164062970  0.0500000000000000
  0.3232968259232655  0.1718369624289219  0.1500000000000000
  0.3737834470880468  0.1718369624289219  0.0500000000000000
  0.3232968259232655  0.2223235835937032  0.0500000000000000
  0.3232968259232655  0.2728102047584844  0.1500000000000000
  0.3737834470880468  0.2223235835937032  0.1500000000000000
  0.3737834470880468  0.2728102047584844  0.0500000000000000
  0.3232968259232655  0.3232968259232656  0.0500000000000000
  0.3232968259232655  0.3737834470880470  0.1500000000000000
  0.3737834470880468  0.3232968259232656  0.1500000000000000
  0.3737834470880468  0.3737834470880470  0.0500000000000000
  0.3232968259232655  0.4242700682528281  0.0500000000000000
  0.3232968259232655  0.4747566894176093  0.1500000000000000
  0.3737834470880468  0.4242700682528281  0.1500000000000000
  0.3737834470880468  0.4747566894176093  0.0500000000000000
  0.3232968259232656  0.5252433105823906  0.0500000000000000
  0.3232968259232656  0.5757299317471719  0.1500000000000000
  0.3737834470880468  0.5252433105823906  0.1500000000000000
  0.3737834470880468  0.5757299317471719  0.0500000000000000
  0.3232968259232656  0.6262165529119531  0.0500000000000000
  0.3232968259232656  0.6767031740767343  0.1500000000000000
  0.3737834470880468  0.6262165529119531  0.1500000000000000
  0.3737834470880468  0.6767031740767343  0.0500000000000000
  0.3232968259232656  0.7271897952415156  0.0500000000000000
  0.3232968259232656  0.7776764164062970  0.1500000000000000
  0.3737834470880468  0.7271897952415156  0.1500000000000000
  0.3737834470880468  0.7776764164062970  0.0500000000000000
  0.3232968259232656  0.8281630375710780  0.0500000000000000
  0.3737834470880468  0.8281630375710780  0.1500000000000000
  0.4242700682528280  0.1718369624289219  0.1500000000000000
  0.4747566894176092  0.1718369624289219  0.0500000000000000
  0.4242700682528280  0.2223235835937032  0.0500000000000000
  0.4242700682528280  0.2728102047584844  0.1500000000000000
  0.4747566894176092  0.2223235835937032  0.1500000000000000
  0.4747566894176092  0.2728102047584844  0.0500000000000000
  0.4242700682528280  0.3232968259232656  0.0500000000000000
  0.4242700682528280  0.3737834470880470  0.1500000000000000
  0.4747566894176093  0.3232968259232656  0.1500000000000000
  0.4747566894176093  0.3737834470880470  0.0500000000000000
  0.4242700682528280  0.4242700682528281  0.0500000000000000
  0.4242700682528280  0.4747566894176093  0.1500000000000000
  0.4747566894176093  0.4242700682528281  0.1500000000000000
  0.4747566894176093  0.4747566894176093  0.0500000000000000
  0.4242700682528280  0.5252433105823906  0.0500000000000000
  0.4242700682528280  0.5757299317471719  0.1500000000000000
  0.4747566894176093  0.5252433105823906  0.1500000000000000
  0.4747566894176093  0.5757299317471719  0.0500000000000000
  0.4242700682528280  0.6262165529119531  0.0500000000000000
  0.4242700682528280  0.6767031740767343  0.1500000000000000
  0.4747566894176093  0.6262165529119531  0.1500000000000000
  0.4747566894176093  0.6767031740767343  0.0500000000000000
  0.4242700682528280  0.7271897952415156  0.0500000000000000
  0.4242700682528280  0.7776764164062970  0.1500000000000000
  0.4747566894176093  0.7271897952415156  0.1500000000000000
  0.4747566894176093  0.7776764164062970  0.0500000000000000
  0.4242700682528280  0.8281630375710780  0.0500000000000000
  0.4747566894176093  0.8281630375710780  0.1500000000000000
  0.5252433105823905  0.1718369624289219  0.1500000000000000
  0.5757299317471717  0.1718369624289219  0.0500000000000000
  0.5252433105823905  0.2223235835937032  0.0500000000000000
  0.5252433105823905  0.2728102047584844  0.1500000000000000
  0.5757299317471717  0.2223235835937032  0.1500000000000000
  0.5757299317471717  0.2728102047584844  0.0500000000000000
  0.5252433105823905  0.3232968259232656  0.0500000000000000
  0.5252433105823905  0.3737834470880470  0.1500000000000000
  0.5757299317471717  0.3232968259232656  0.1500000000000000
  0.5757299317471718  0.3737834470880470  0.0500000000000000
  0.5252433105823905  0.4242700682528281  0.0500000000000000
  0.5252433105823905  0.4747566894176093  0.1500000000000000
  0.5757299317471717  0.4242700682528281  0.1500000000000000
  0.5757299317471718  0.4747566894176093  0.0500000000000000
  0.5252433105823905  0.5252433105823906  0.0500000000000000
  0.5252433105823905  0.5757299317471719  0.1500000000000000
  0.5757299317471717  0.5252433105823906  0.1500000000000000
  0.5757299317471718  0.5757299317471719  0.0500000000000000
  0.5252433105823905  0.6262165529119531  0.0500000000000000
  0.5252433105823905  0.6767031740767343  0.1500000000000000
  0.5757299317471717  0.6262165529119531  0.1500000000000000
  0.5757299317471718  0.6767031740767343  0.0500000000000000
  0.5252433105823905  0.7271897952415156  0.0500000000000000
  0.5252433105823905  0.7776764164062970  0.1500000000000000
  0.5757299317471717  0.7271897952415156  0.1500000000000000
  0.5757299317471718  0.7776764164062970  0.0500000000000000
  0.5252433105823905  0.8281630375710780  0.0500000000000000
  0.5757299317471717  0.8281630375710780  0.1500000000000000
  0.6262165529119530  0.1718369624289219  0.1500000000000000
  0.6767031740767342  0.1718369624289219  0.0500000000000000
  0.6262165529119530  0.2223235835937032  0.0500000000000000
  0.6262165529119530  0.2728102047584844  0.1500000000000000
  0.6767031740767342  0.2223235835937032  0.1500000000000000
  0.6767031740767342  0.2728102047584844  0.0500000000000000
  0.6262165529119530  0.3232968259232656  0.0500000000000000
  0.6262165529119530  0.3737834470880470  0.1500000000000000
  0.6767031740767343  0.3232968259232656  0.1500000000000000
  0.6767031740767343  0.3737834470880470  0.0500000000000000
  0.6262165529119530  0.4242700682528281  0.0500000000000000
  0.6262165529119530  0.4747566894176093  0.1500000000000000
  0.6767031740767343  0.4242700682528281  0.1500000000000000
  0.6767031740767343  0.4747566894176093  0.0500000000000000
  0.6262165529119530  0.5252433105823906  0.0500000000000000
  0.6262165529119530  0.5757299317471719  0.1500000000000000
  0.6767031740767343  0.5252433105823906  0.1500000000000000
  0.6767031740767343  0.5757299317471719  0.0500000000000000
  0.6262165529119530  0.6262165529119531  0.0500000000000000
  0.6262165529119530  0.6767031740767343  0.1500000000000000
  0.6767031740767343  0.6262165529119531  0.1500000000000000
  0.6767031740767343  0.6767031740767343  0.0500000000000000
  0.6262165529119530  0.7271897952415156  0.0500000000000000
  0.6262165529119530  0.7776764164062970  0.1500000000000000
  0.6767031740767343  0.7271897952415156  0.1500000000000000
  0.6767031740767343  0.7776764164062970  0.0500000000000001
  0.6262165529119530  0.8281630375710780  0.0500000000000001
  0.6767031740767343  0.8281630375710780  0.1500000000000000
  0.7271897952415154  0.2223235835937032  0.0500000000000000
  0.7271897952415154  0.2728102047584844  0.1500000000000000
  0.7776764164062967  0.2728102047584844  0.0500000000000000
  0.7271897952415155  0.3232968259232656  0.0500000000000000
  0.7271897952415155  0.3737834470880470  0.1500000000000000
  0.7776764164062967  0.3232968259232656  0.1500000000000000
  0.7776764164062968  0.3737834470880470  0.0500000000000000
  0.7271897952415155  0.4242700682528281  0.0500000000000000
  0.7271897952415155  0.4747566894176093  0.1500000000000000
  0.7776764164062967  0.4242700682528281  0.1500000000000000
  0.7776764164062968  0.4747566894176093  0.0500000000000000
  0.7271897952415155  0.5252433105823906  0.0500000000000000
  0.7271897952415155  0.5757299317471719  0.1500000000000000
  0.7776764164062967  0.5252433105823906  0.1500000000000000
  0.7776764164062968  0.5757299317471719  0.0500000000000000
  0.7271897952415155  0.6262165529119531  0.0500000000000000
  0.7271897952415155  0.6767031740767343  0.1500000000000000
  0.7776764164062967  0.6262165529119531  0.1500000000000000
  0.7776764164062968  0.6767031740767343  0.0500000000000001
  0.7271897952415155  0.7271897952415156  0.0500000000000001
  0.7271897952415155  0.7776764164062970  0.1500000000000000
  0.7776764164062967  0.7271897952415156  0.1500000000000000
  0.8281630375710780  0.3232968259232656  0.0500000000000000
  0.8281630375710780  0.3737834470880470  0.1500000000000000
  0.8281630375710780  0.4242700682528281  0.0500000000000000
  0.8281630375710780  0.4747566894176093  0.1500000000000000
  0.8281630375710780  0.5252433105823906  0.0500000000000000
  0.8281630375710780  0.5757299317471719  0.1500000000000000
  0.8281630375710780  0.6262165529119531  0.0500000000000001
  0.8281630375710780  0.6767031740767343  0.1500000000000000
  0.1718369624289218  0.3232968259232656  0.3500000000000000
  0.1718369624289218  0.3737834470880470  0.2499999999999999
  0.1718369624289218  0.4242700682528281  0.3500000000000000
  0.1718369624289218  0.4747566894176093  0.2499999999999999
  0.1718369624289218  0.5252433105823906  0.3500000000000000
  0.1718369624289218  0.5757299317471719  0.2499999999999999
  0.1718369624289218  0.6262165529119531  0.3500000000000000
  0.1718369624289218  0.6767031740767343  0.2499999999999999
  0.2223235835937030  0.2728102047584844  0.3500000000000000
  0.2728102047584843  0.2223235835937032  0.3500000000000000
  0.2728102047584843  0.2728102047584844  0.2499999999999999
  0.2223235835937030  0.3232968259232656  0.2499999999999999
  0.2223235835937030  0.3737834470880470  0.3500000000000000
  0.2728102047584843  0.3232968259232656  0.3500000000000000
  0.2728102047584843  0.3737834470880470  0.2499999999999999
  0.2223235835937030  0.4242700682528281  0.2499999999999999
  0.2223235835937030  0.4747566894176093  0.3500000000000000
  0.2728102047584843  0.4242700682528281  0.3500000000000000
  0.2728102047584843  0.4747566894176093  0.2499999999999999
  0.2223235835937031  0.5252433105823906  0.2499999999999999
  0.2223235835937031  0.5757299317471719  0.3500000000000000
  0.2728102047584843  0.5252433105823906  0.3500000000000000
  0.2728102047584843  0.5757299317471719  0.2499999999999999
  0.2223235835937031  0.6262165529119531  0.2499999999999999
  0.2223235835937031  0.6767031740767343  0.3500000000000000
  0.2728102047584843  0.6262165529119531  0.3500000000000000
  0.2728102047584843  0.6767031740767343  0.2500000000000000
  0.2223235835937031  0.7271897952415156  0.2500000000000000
  0.2728102047584843  0.7271897952415156  0.3500000000000000
  0.2728102047584843  0.7776764164062970  0.2500000000000001
  0.3232968259232655  0.1718369624289219  0.3500000000000000
  0.3737834470880468  0.1718369624289219  0.2499999999999999
  0.3232968259232655  0.2223235835937032  0.2499999999999999
  0.3232968259232655  0.2728102047584844  0.3500000000000000
  0.3737834470880468  0.2223235835937032  0.3500000000000000
  0.3737834470880468  0.2728102047584844  0.2499999999999999
  0.3232968259232655  0.3232968259232656  0.2499999999999999
  0.3232968259232655  0.3737834470880470  0.3500000000000000
  0.3737834470880468  0.3232968259232656  0.3500000000000000
  0.3737834470880468  0.3737834470880470  0.2499999999999999
  0.3232968259232655  0.4242700682528281  0.2499999999999999
  0.3232968259232655  0.4747566894176093  0.3500000000000000
  0.3737834470880468  0.4242700682528281  0.3500000000000000
  0.3737834470880468  0.4747566894176093  0.2499999999999999
  0.3232968259232656  0.5252433105823906  0.2499999999999999
  0.3232968259232656  0.5757299317471719  0.3500000000000000
  0.3737834470880468  0.5252433105823906  0.3500000000000000
  0.3737834470880468  0.5757299317471719  0.2500000000000000
  0.3232968259232656  0.6262165529119531  0.2500000000000000
  0.3232968259232656  0.6767031740767343  0.3500000000000000
  0.3737834470880468  0.6262165529119531  0.3500000000000000
  0.3737834470880468  0.6767031740767343  0.2500000000000001
  0.3232968259232656  0.7271897952415156  0.2500000000000001
  0.3232968259232656  0.7776764164062970  0.3500000000000000
  0.3737834470880468  0.7271897952415156  0.3500000000000000
  0.3737834470880468  0.7776764164062970  0.2500000000000001
  0.3232968259232656  0.8281630375710780  0.2500000000000001
  0.3737834470880468  0.8281630375710780  0.3500000000000000
  0.4242700682528280  0.1718369624289219  0.3500000000000000
  0.4747566894176092  0.1718369624289219  0.2499999999999999
  0.4242700682528280  0.2223235835937032  0.2499999999999999
  0.4242700682528280  0.2728102047584844  0.3500000000000000
  0.4747566894176092  0.2223235835937032  0.3500000000000000
  0.4747566894176092  0.2728102047584844  0.2499999999999999
  0.4242700682528280  0.3232968259232656  0.2499999999999999
  0.4242700682528280  0.3737834470880470  0.3500000000000000
  0.4747566894176093  0.3232968259232656  0.3500000000000000
  0.4747566894176093  0.3737834470880470  0.2499999999999999
  0.4242700682528280  0.4242700682528281  0.2499999999999999
  0.4242700682528280  0.4747566894176093  0.3500000000000000
  0.4747566894176093  0.4242700682528281  0.3500000000000000
  0.4747566894176093  0.4747566894176093  0.2500000000000000
  0.4242700682528280  0.5252433105823906  0.2500000000000000
  0.4242700682528280  0.5757299317471719  0.3500000000000000
  0.4747566894176093  0.5252433105823906  0.3500000000000000
  0.4747566894176093  0.5757299317471719  0.2500000000000001
  0.4242700682528280  0.6262165529119531  0.2500000000000001
  0.4242700682528280  0.6767031740767343  0.3500000000000000
  0.4747566894176093  0.6262165529119531  0.3500000000000000
  0.4747566894176093  0.6767031740767343  0.2500000000000001
  0.4242700682528280  0.7271897952415156  0.2500000000000001
  0.4242700682528280  0.7776764164062970  0.3500000000000000
  0.4747566894176093  0.7271897952415156  0.3500000000000000
  0.4747566894176093  0.7776764164062970  0.2500000000000001
  0.4242700682528280  0.8281630375710780  0.2500000000000001
  0.4747566894176093  0.8281630375710780  0.3500000000000000
  0.5252433105823905  0.1718369624289219  0.3500000000000000
  0.5757299317471717  0.1718369624289219  0.2499999999999999
  0.5252433105823905  0.2223235835937032  0.2499999999999999
  0.5252433105823905  0.2728102047584844  0.3500000000000000
  0.5757299317471717  0.2223235835937032  0.3500000000000000
  0.5757299317471717  0.2728102047584844  0.2499999999999999
  0.5252433105823905  0.3232968259232656  0.2499999999999999
  0.5252433105823905  0.3737834470880470  0.3500000000000000
  0.5757299317471717  0.3232968259232656  0.3500000000000000
  0.5757299317471718  0.3737834470880470  0.2500000000000000
  0.5252433105823905  0.4242700682528281  0.2500000000000000
  0.5252433105823905  0.4747566894176093  0.3500000000000000
  0.5757299317471717  0.4242700682528281  0.3500000000000000
  0.5757299317471718  0.4747566894176093  0.2500000000000001
  0.5252433105823905  0.5252433105823906  0.2500000000000001
  0.5252433105823905  0.5757299317471719  0.3500000000000000
  0.5757299317471717  0.5252433105823906  0.3500000000000000
  0.5757299317471718  0.5757299317471719  0.2500000000000001
  0.5252433105823905  0.6262165529119531  0.2500000000000001
  0.5252433105823905  0.6767031740767343  0.3500000000000000
  0.5757299317471717  0.6262165529119531  0.3500000000000000
  0.5757299317471718  0.6767031740767343  0.2500000000000001
  0.5252433105823905  0.7271897952415156  0.2500000000000001
  0.5252433105823905  0.7776764164062970  0.3500000000000000
  0.5757299317471717  0.7271897952415156  0.3500000000000000
  0.5757299317471718  0.7776764164062970  0.2500000000000001
  0.5252433105823905  0.8281630375710780  0.2500000000000001
  0.5757299317471717  0.8281630375710780  0.3500000000000000
  0.6262165529119530  0.1718369624289219  0.3500000000000000
  0.6767031740767342  0.1718369624289219  0.2499999999999999
  0.6262165529119530  0.2223235835937032  0.2499999999999999
  0.6262165529119530  0.2728102047584844  0.3500000000000000
  0.6767031740767342  0.2223235835937032  0.3500000000000000
  0.6767031740767342  0.2728102047584844  0.2500000000000000
  0.6262165529119530  0.3232968259232656  0.2500000000000000
  0.6262165529119530  0.3737834470880470  0.3500000000000000
  0.6767031740767343  0.3232968259232656  0.3500000000000000
  0.6767031740767343  0.3737834470880470  0.2500000000000001
  0.6262165529119530  0.4242700682528281  0.2500000000000001
  0.6262165529119530  0.4747566894176093  0.3500000000000000
  0.6767031740767343  0.4242700682528281  0.3500000000000000
  0.6767031740767343  0.4747566894176093  0.2500000000000001
  0.6262165529119530  0.5252433105823906  0.2500000000000001
  0.6262165529119530  0.5757299317471719  0.3500000000000000
  0.6767031740767343  0.5252433105823906  0.3500000000000000
  0.6767031740767343  0.5757299317471719  0.2500000000000001
  0.6262165529119530  0.6262165529119531  0.2500000000000001
  0.6262165529119530  0.6767031740767343  0.3500000000000000
  0.6767031740767343  0.6262165529119531  0.3500000000000000
  0.6767031740767343  0.6767031740767343  0.2500000000000001
  0.6262165529119530  0.7271897952415156  0.2500000000000001
  0.6262165529119530  0.7776764164062970  0.3500000000000000
  0.6767031740767343  0.7271897952415156  0.3500000000000000
  0.6767031740767343  0.7776764164062970  0.2500000000000001
  0.6262165529119530  0.8281630375710780  0.2500000000000001
  0.6767031740767343  0.8281630375710780  0.3500000000000000
  0.7271897952415154  0.2223235835937032  0.2500000000000000
  0.7271897952415154  0.2728102047584844  0.3500000000000000
  0.7776764164062967  0.2728102047584844  0.2500000000000001
  0.7271897952415155  0.3232968259232656  0.2500000000000001
  0.7271897952415155  0.3737834470880470  0.3500000000000000
  0.7776764164062967  0.3232968259232656  0.3500000000000000
  0.7776764164062968  0.3737834470880470  0.2500000000000001
  0.7271897952415155  0.4242700682528281  0.2500000000000001
  0.7271897952415155  0.4747566894176093  0.3500000000000000
  0.7776764164062967  0.4242700682528281  0.3500000000000000
  0.7776764164062968  0.4747566894176093  0.2500000000000001
  0.7271897952415155  0.5252433105823906  0.2500000000000001
  0.7271897952415155  0.5757299317471719  0.3500000000000000
  0.7776764164062967  0.5252433105823906  0.3500000000000000
  0.7776764164062968  0.5757299317471719  0.2500000000000001
  0.7271897952415155  0.6262165529119531  0.2500000000000001
  0.7271897952415155  0.6767031740767343  0.3500000000000000
  0.7776764164062967  0.6262165529119531  0.3500000000000000
  0.7776764164062968  0.6767031740767343  0.2500000000000001
  0.7271897952415155  0.7271897952415156  0.2500000000000001
  0.7271897952415155  0.7776764164062970  0.3500000000000000
  0.7776764164062967  0.7271897952415156  0.3500000000000000
  0.8281630375710780  0.3232968259232656  0.2500000000000001
  0.8281630375710780  0.3737834470880470  0.3500000000000000
  0.8281630375710780  0.4242700682528281  0.2500000000000001
  0.8281630375710780  0.4747566894176093  0.3500000000000000
  0.8281630375710780  0.5252433105823906  0.2500000000000001
  0.8281630375710780  0.5757299317471719  0.3500000000000000
  0.8281630375710780  0.6262165529119531  0.2500000000000001
  0.8281630375710780  0.6767031740767343  0.3500000000000000
  0.1718369624289218  0.3232968259232656  0.5499999999999999
  0.1718369624289218  0.3737834470880470  0.4500000000000000
  0.1718369624289218  0.4242700682528281  0.5499999999999999
  0.1718369624289218  0.4747566894176093  0.4500000000000000
  0.1718369624289218  0.5252433105823906  0.5499999999999999
  0.1718369624289218  0.5757299317471719  0.4500000000000000
  0.1718369624289218  0.6262165529119531  0.5499999999999999
  0.1718369624289218  0.6767031740767343  0.4500000000000000
  0.2223235835937030  0.2728102047584844  0.5499999999999999
  0.2728102047584843  0.2223235835937032  0.5499999999999999
  0.2728102047584843  0.2728102047584844  0.4500000000000000
  0.2223235835937030  0.3232968259232656  0.4500000000000000
  0.2223235835937030  0.3737834470880470  0.5499999999999999
  0.2728102047584843  0.3232968259232656  0.5499999999999999
  0.2728102047584843  0.3737834470880470  0.4500000000000000
  0.2223235835937030  0.4242700682528281  0.4500000000000000
  0.2223235835937030  0.4747566894176093  0.5499999999999999
  0.2728102047584843  0.4242700682528281  0.5499999999999999
  0.2728102047584843  0.4747566894176093  0.4500000000000000
  0.2223235835937031  0.5252433105823906  0.4500000000000000
  0.2223235835937031  0.5757299317471719  0.5499999999999999
  0.2728102047584843  0.5252433105823906  0.5499999999999999
  0.2728102047584843  0.5757299317471719  0.4500000000000000
  0.2223235835937031  0.6262165529119531  0.4500000000000000
  0.2223235835937031  0.6767031740767343  0.5500000000000000
  0.2728102047584843  0.6262165529119531  0.5500000000000000
  0.2728102047584843  0.6767031740767343  0.4500000000000000
  0.2223235835937031  0.7271897952415156  0.4500000000000000
  0.2728102047584843  0.7271897952415156  0.5500000000000000
  0.2728102047584843  0.7776764164062970  0.4500000000000000
  0.3232968259232655  0.1718369624289219  0.5499999999999999
  0.3737834470880468  0.1718369624289219  0.4500000000000000
  0.3232968259232655  0.2223235835937032  0.4500000000000000
  0.3232968259232655  0.2728102047584844  0.5499999999999999
  0.3737834470880468  0.2223235835937032  0.5499999999999999
  0.3737834470880468  0.2728102047584844  0.4500000000000000
  0.3232968259232655  0.3232968259232656  0.4500000000000000
  0.3232968259232655  0.3737834470880470  0.5499999999999999
  0.3737834470880468  0.3232968259232656  0.5499999999999999
  0.3737834470880468  0.3737834470880470  0.4500000000000000
  0.3232968259232655  0.4242700682528281  0.4500000000000000
  0.3232968259232655  0.4747566894176093  0.5499999999999999
  0.3737834470880468  0.4242700682528281  0.5499999999999999
  0.3737834470880468  0.4747566894176093  0.4500000000000000
  0.3232968259232656  0.5252433105823906  0.4500000000000000
  0.3232968259232656  0.5757299317471719  0.5500000000000000
  0.3737834470880468  0.5252433105823906  0.5500000000000000
  0.3737834470880468  0.5757299317471719  0.4500000000000000
  0.3232968259232656  0.6262165529119531  0.4500000000000000
  0.3232968259232656  0.6767031740767343  0.5500000000000000
  0.3737834470880468  0.6262165529119531  0.5500000000000000
  0.3737834470880468  0.6767031740767343  0.4500000000000000
  0.3232968259232656  0.7271897952415156  0.4500000000000000
  0.3232968259232656  0.7776764164062970  0.5500000000000000
  0.3737834470880468  0.7271897952415156  0.5500000000000000
  0.3737834470880468  0.7776764164062970  0.4500000000000000
  0.3232968259232656  0.8281630375710780  0.4500000000000000
  0.3737834470880468  0.8281630375710780  0.5500000000000000
  0.4242700682528280  0.1718369624289219  0.5499999999999999
  0.4747566894176092  0.1718369624289219  0.4500000000000000
  0.4242700682528280  0.2223235835937032  0.4500000000000000
  0.4242700682528280  0.2728102047584844  0.5499999999999999
  0.4747566894176092  0.2223235835937032  0.5499999999999999
  0.4747566894176092  0.2728102047584844  0.4500000000000000
  0.4242700682528280  0.3232968259232656  0.4500000000000000
  0.4242700682528280  0.3737834470880470  0.5499999999999999
  0.4747566894176093  0.3232968259232656  0.5499999999999999
  0.4747566894176093  0.3737834470880470  0.4500000000000000
  0.4242700682528280  0.4242700682528281  0.4500000000000000
  0.4242700682528280  0.4747566894176093  0.5500000000000000
  0.4747566894176093  0.4242700682528281  0.5500000000000000
  0.4747566894176093  0.4747566894176093  0.4500000000000000
  0.4242700682528280  0.5252433105823906  0.4500000000000000
  0.4242700682528280  0.5757299317471719  0.5500000000000000
  0.4747566894176093  0.5252433105823906  0.5500000000000000
  0.4747566894176093  0.5757299317471719  0.4500000000000000
  0.4242700682528280  0.6262165529119531  0.4500000000000000
  0.4242700682528280  0.6767031740767343  0.5500000000000000
  0.4747566894176093  0.6262165529119531  0.5500000000000000
  0.4747566894176093  0.6767031740767343  0.4500000000000000
  0.4242700682528280  0.7271897952415156  0.4500000000000000
  0.4242700682528280  0.7776764164062970  0.5500000000000000
  0.4747566894176093  0.7271897952415156  0.5500000000000000
  0.4747566894176093  0.7776764164062970  0.4500000000000000
  0.4242700682528280  0.8281630375710780  0.4500000000000000
  0.4747566894176093  0.8281630375710780  0.5500000000000000
  0.5252433105823905  0.1718369624289219  0.5499999999999999
  0.5757299317471717  0.1718369624289219  0.4500000000000000
  0.5252433105823905  0.2223235835937032  0.4500000000000000
  0.5252433105823905  0.2728102047584844  0.5499999999999999
  0.5757299317471717  0.2223235835937032  0.5499999999999999
  0.5757299317471717  0.2728102047584844  0.4500000000000000
  0.5252433105823905  0.3232968259232656  0.4500000000000000
  0.5252433105823905  0.3737834470880470  0.5500000000000000
  0.5757299317471717  0.3232968259232656  0.5500000000000000
  0.5757299317471718  0.3737834470880470  0.4500000000000000
  0.5252433105823905  0.4242700682528281  0.4500000000000000
  0.5252433105823905  0.4747566894176093  0.5500000000000000
  0.5757299317471717  0.4242700682528281  0.5500000000000000
  0.5757299317471718  0.4747566894176093  0.4500000000000000
  0.5252433105823905  0.5252433105823906  0.4500000000000000
  0.5252433105823905  0.5757299317471719  0.5500000000000000
  0.5757299317471717  0.5252433105823906  0.5500000000000000
  0.5757299317471718  0.5757299317471719  0.4500000000000000
  0.5252433105823905  0.6262165529119531  0.4500000000000000
  0.5252433105823905  0.6767031740767343  0.5500000000000000
  0.5757299317471717  0.6262165529119531  0.5500000000000000
  0.5757299317471718  0.6767031740767343  0.4500000000000000
  0.5252433105823905  0.7271897952415156  0.4500000000000000
  0.5252433105823905  0.7776764164062970  0.5500000000000000
  0.5757299317471717  0.7271897952415156  0.5500000000000000
  0.5757299317471718  0.7776764164062970  0.4500000000000000
  0.5252433105823905  0.8281630375710780  0.4500000000000000
  0.5757299317471717  0.8281630375710780  0.5500000000000000
  0.6262165529119530  0.1718369624289219  0.5499999999999999
  0.6767031740767342  0.1718369624289219  0.4500000000000000
  0.6262165529119530  0.2223235835937032  0.4500000000000000
  0.6262165529119530  0.2728102047584844  0.5500000000000000
  0.6767031740767342  0.2223235835937032  0.5500000000000000
  0.6767031740767342  0.2728102047584844  0.4500000000000000
  0.6262165529119530  0.3232968259232656  0.4500000000000000
  0.6262165529119530  0.3737834470880470  0.5500000000000000
  0.6767031740767343  0.3232968259232656  0.5500000000000000
  0.6767031740767343  0.3737834470880470  0.4500000000000000
  0.6262165529119530  0.4242700682528281  0.4500000000000000
  0.6262165529119530  0.4747566894176093  0.5500000000000000
  0.6767031740767343  0.4242700682528281  0.5500000000000000
  0.6767031740767343  0.4747566894176093  0.4500000000000000
  0.6262165529119530  0.5252433105823906  0.4500000000000000
  0.6262165529119530  0.5757299317471719  0.5500000000000000
  0.6767031740767343  0.5252433105823906  0.5500000000000000
  0.6767031740767343  0.5757299317471719  0.4500000000000000
  0.6262165529119530  0.6262165529119531  0.4500000000000000
  0.6262165529119530  0.6767031740767343  0.5500000000000000
  0.6767031740767343  0.6262165529119531  0.5500000000000000
  0.6767031740767343  0.6767031740767343  0.4500000000000000
  0.6262165529119530  0.7271897952415156  0.4500000000000000
  0.6262165529119530  0.7776764164062970  0.5500000000000000
  0.6767031740767343  0.7271897952415156  0.5500000000000000
  0.6767031740767343  0.7776764164062970  0.4500000000000000
  0.6262165529119530  0.8281630375710780  0.4500000000000000
  0.6767031740767343  0.8281630375710780  0.5500000000000000
  0.7271897952415154  0.2223235835937032  0.4500000000000000
  0.7271897952415154  0.2728102047584844  0.5500000000000000
  0.7776764164062967  0.2728102047584844  0.4500000000000000
  0.7271897952415155  0.3232968259232656  0.4500000000000000
  0.7271897952415155  0.3737834470880470  0.5500000000000000
  0.7776764164062967  0.3232968259232656  0.5500000000000000
  0.7776764164062968  0.3737834470880470  0.4500000000000000
  0.7271897952415155  0.4242700682528281  0.4500000000000000
  0.7271897952415155  0.4747566894176093  0.5500000000000000
  0.7776764164062967  0.4242700682528281  0.5500000000000000
  0.7776764164062968  0.4747566894176093  0.4500000000000000
  0.7271897952415155  0.5252433105823906  0.4500000000000000
  0.7271897952415155  0.5757299317471719  0.5500000000000000
  0.7776764164062967  0.5252433105823906  0.5500000000000000
  0.7776764164062968  0.5757299317471719  0.4500000000000000
  0.7271897952415155  0.6262165529119531  0.4500000000000000
  0.7271897952415155  0.6767031740767343  0.5500000000000000
  0.7776764164062967  0.6262165529119531  0.5500000000000000
  0.7776764164062968  0.6767031740767343  0.4500000000000000
  0.7271897952415155  0.7271897952415156  0.4500000000000000
  0.7271897952415155  0.7776764164062970  0.5500000000000000
  0.7776764164062967  0.7271897952415156  0.5500000000000000
  0.8281630375710780  0.3232968259232656  0.4500000000000000
  0.8281630375710780  0.3737834470880470  0.5500000000000000
  0.8281630375710780  0.4242700682528281  0.4500000000000000
  0.8281630375710780  0.4747566894176093  0.5500000000000000
  0.8281630375710780  0.5252433105823906  0.4500000000000000
  0.8281630375710780  0.5757299317471719  0.5500000000000000
  0.8281630375710780  0.6262165529119531  0.4500000000000000
  0.8281630375710780  0.6767031740767343  0.5500000000000000
  0.1718369624289218  0.3232968259232656  0.7500000000000000
  0.1718369624289218  0.3737834470880470  0.6500000000000000
  0.1718369624289218  0.4242700682528281  0.7500000000000000
  0.1718369624289218  0.4747566894176093  0.6500000000000000
  0.1718369624289218  0.5252433105823906  0.7500000000000000
  0.1718369624289218  0.5757299317471719  0.6500000000000000
  0.1718369624289218  0.6262165529119531  0.7500000000000000
  0.1718369624289218  0.6767031740767343  0.6500000000000000
  0.2223235835937030  0.2728102047584844  0.7500000000000000
  0.2728102047584843  0.2223235835937032  0.7500000000000000
  0.2728102047584843  0.2728102047584844  0.6500000000000000
  0.2223235835937030  0.3232968259232656  0.6500000000000000
  0.2223235835937030  0.3737834470880470  0.7500000000000000
  0.2728102047584843  0.3232968259232656  0.7500000000000000
  0.2728102047584843  0.3737834470880470  0.6500000000000000
  0.2223235835937030  0.4242700682528281  0.6500000000000000
  0.2223235835937030  0.4747566894176093  0.7500000000000000
  0.2728102047584843  0.4242700682528281  0.7500000000000000
  0.2728102047584843  0.4747566894176093  0.6500000000000000
  0.2223235835937031  0.5252433105823906  0.6500000000000000
  0.2223235835937031  0.5757299317471719  0.7500000000000000
  0.2728102047584843  0.5252433105823906  0.7500000000000000
  0.2728102047584843  0.5757299317471719  0.6500000000000000
  0.2223235835937031  0.6262165529119531  0.6500000000000000
  0.2223235835937031  0.6767031740767343  0.7500000000000000
  0.2728102047584843  0.6262165529119531  0.7500000000000000
  0.2728102047584843  0.6767031740767343  0.6500000000000001
  0.2223235835937031  0.7271897952415156  0.6500000000000001
  0.2728102047584843  0.7271897952415156  0.7500000000000000
  0.2728102047584843  0.7776764164062970  0.6500000000000001
  0.3232968259232655  0.1718369624289219  0.7500000000000000
  0.3737834470880468  0.1718369624289219  0.6500000000000000
  0.3232968259232655  0.2223235835937032  0.6500000000000000
  0.3232968259232655  0.2728102047584844  0.7500000000000000
  0.3737834470880468  0.2223235835937032  0.7500000000000000
  0.3737834470880468  0.2728102047584844  0.6500000000000000
  0.3232968259232655  0.3232968259232656  0.6500000000000000
  0.3232968259232655  0.3737834470880470  0.7500000000000000
  0.3737834470880468  0.3232968259232656  0.7500000000000000
  0.3737834470880468  0.3737834470880470  0.6500000000000000
  0.3232968259232655  0.4242700682528281  0.6500000000000000
  0.3232968259232655  0.4747566894176093  0.7500000000000000
  0.3737834470880468  0.4242700682528281  0.7500000000000000
  0.3737834470880468  0.4747566894176093  0.6500000000000000
  0.3232968259232656  0.5252433105823906  0.6500000000000000
  0.3232968259232656  0.5757299317471719  0.7500000000000000
  0.3737834470880468  0.5252433105823906  0.7500000000000000
  0.3737834470880468  0.5757299317471719  0.6500000000000001
  0.3232968259232656  0.6262165529119531  0.6500000000000001
  0.3232968259232656  0.6767031740767343  0.7500000000000000
  0.3737834470880468  0.6262165529119531  0.7500000000000000
  0.3737834470880468  0.6767031740767343  0.6500000000000001
  0.3232968259232656  0.7271897952415156  0.6500000000000001
  0.3232968259232656  0.7776764164062970  0.7500000000000001
  0.3737834470880468  0.7271897952415156  0.7500000000000001
  0.3737834470880468  0.7776764164062970  0.6500000000000001
  0.3232968259232656  0.8281630375710780  0.6500000000000001
  0.3737834470880468  0.8281630375710780  0.7500000000000001
  0.4242700682528280  0.1718369624289219  0.7500000000000000
  0.4747566894176092  0.1718369624289219  0.6500000000000000
  0.4242700682528280  0.2223235835937032  0.6500000000000000
  0.4242700682528280  0.2728102047584844  0.7500000000000000
  0.4747566894176092  0.2223235835937032  0.7500000000000000
  0.4747566894176092  0.2728102047584844  0.6500000000000000
  0.4242700682528280  0.3232968259232656  0.6500000000000000
  0.4242700682528280  0.3737834470880470  0.7500000000000000
  0.4747566894176093  0.3232968259232656  0.7500000000000000
  0.4747566894176093  0.3737834470880470  0.6500000000000000
  0.4242700682528280  0.4242700682528281  0.6500000000000000
  0.4242700682528280  0.4747566894176093  0.7500000000000000
  0.4747566894176093  0.4242700682528281  0.7500000000000000
  0.4747566894176093  0.4747566894176093  0.6500000000000001
  0.4242700682528280  0.5252433105823906  0.6500000000000001
  0.4242700682528280  0.5757299317471719  0.7500000000000000
  0.4747566894176093  0.5252433105823906  0.7500000000000000
  0.4747566894176093  0.5757299317471719  0.6500000000000001
  0.4242700682528280  0.6262165529119531  0.6500000000000001
  0.4242700682528280  0.6767031740767343  0.7500000000000001
  0.4747566894176093  0.6262165529119531  0.7500000000000001
  0.4747566894176093  0.6767031740767343  0.6500000000000001
  0.4242700682528280  0.7271897952415156  0.6500000000000001
  0.4242700682528280  0.7776764164062970  0.7500000000000001
  0.4747566894176093  0.7271897952415156  0.7500000000000001
  0.4747566894176093  0.7776764164062970  0.6500000000000001
  0.4242700682528280  0.8281630375710780  0.6500000000000001
  0.4747566894176093  0.8281630375710780  0.7500000000000001
  0.5252433105823905  0.1718369624289219  0.7500000000000000
  0.5757299317471717  0.1718369624289219  0.6500000000000000
  0.5252433105823905  0.2223235835937032  0.6500000000000000
  0.5252433105823905  0.2728102047584844  0.7500000000000000
  0.5757299317471717  0.2223235835937032  0.7500000000000000
  0.5757299317471717  0.2728102047584844  0.6500000000000000
  0.5252433105823905  0.3232968259232656  0.6500000000000000
  0.5252433105823905  0.3737834470880470  0.7500000000000000
  0.5757299317471717  0.3232968259232656  0.7500000000000000
  0.5757299317471718  0.3737834470880470  0.6500000000000001
  0.5252433105823905  0.4242700682528281  0.6500000000000001
  0.5252433105823905  0.4747566894176093  0.7500000000000000
  0.5757299317471717  0.4242700682528281  0.7500000000000000
  0.5757299317471718  0.4747566894176093  0.6500000000000001
  0.5252433105823905  0.5252433105823906  0.6500000000000001
  0.5252433105823905  0.5757299317471719  0.7500000000000001
  0.5757299317471717  0.5252433105823906  0.7500000000000001
  0.5757299317471718  0.5757299317471719  0.6500000000000001
  0.5252433105823905  0.6262165529119531  0.6500000000000001
  0.5252433105823905  0.6767031740767343  0.7500000000000001
  0.5757299317471717  0.6262165529119531  0.7500000000000001
  0.5757299317471718  0.6767031740767343  0.6500000000000001
  0.5252433105823905  0.7271897952415156  0.6500000000000001
  0.5252433105823905  0.7776764164062970  0.7500000000000001
  0.5757299317471717  0.7271897952415156  0.7500000000000001
  0.5757299317471718  0.7776764164062970  0.6500000000000001
  0.5252433105823905  0.8281630375710780  0.6500000000000001
  0.5757299317471717  0.8281630375710780  0.7500000000000001
  0.6262165529119530  0.1718369624289219  0.7500000000000000
  0.6767031740767342  0.1718369624289219  0.6500000000000000
  0.6262165529119530  0.2223235835937032  0.6500000000000000
  0.6262165529119530  0.2728102047584844  0.7500000000000000
  0.6767031740767342  0.2223235835937032  0.7500000000000000
  0.6767031740767342  0.2728102047584844  0.6500000000000001
  0.6262165529119530  0.3232968259232656  0.6500000000000001
  0.6262165529119530  0.3737834470880470  0.7500000000000000
  0.6767031740767343  0.3232968259232656  0.7500000000000000
  0.6767031740767343  0.3737834470880470  0.6500000000000001
  0.6262165529119530  0.4242700682528281  0.6500000000000001
  0.6262165529119530  0.4747566894176093  0.7500000000000001
  0.6767031740767343  0.4242700682528281  0.7500000000000001
  0.6767031740767343  0.4747566894176093  0.6500000000000001
  0.6262165529119530  0.5252433105823906  0.6500000000000001
  0.6262165529119530  0.5757299317471719  0.7500000000000001
  0.6767031740767343  0.5252433105823906  0.7500000000000001
  0.6767031740767343  0.5757299317471719  0.6500000000000001
  0.6262165529119530  0.6262165529119531  0.6500000000000001
  0.6262165529119530  0.6767031740767343  0.7500000000000001
  0.6767031740767343  0.6262165529119531  0.7500000000000001
  0.6767031740767343  0.6767031740767343  0.6500000000000001
  0.6262165529119530  0.7271897952415156  0.6500000000000001
  0.6262165529119530  0.7776764164062970  0.7500000000000001
  0.6767031740767343  0.7271897952415156  0.7500000000000001
  0.6767031740767343  0.7776764164062970  0.6500000000000001
  0.6262165529119530  0.8281630375710780  0.6500000000000001
  0.6767031740767343  0.8281630375710780  0.7500000000000001
  0.7271897952415154  0.2223235835937032  0.6500000000000001
  0.7271897952415154  0.2728102047584844  0.7500000000000000
  0.7776764164062967  0.2728102047584844  0.6500000000000001
  0.7271897952415155  0.3232968259232656  0.6500000000000001
  0.7271897952415155  0.3737834470880470  0.7500000000000001
  0.7776764164062967  0.3232968259232656  0.7500000000000001
  0.7776764164062968  0.3737834470880470  0.6500000000000001
  0.7271897952415155  0.4242700682528281  0.6500000000000001
  0.7271897952415155  0.4747566894176093  0.7500000000000001
  0.7776764164062967  0.4242700682528281  0.7500000000000001
  0.7776764164062968  0.4747566894176093  0.6500000000000001
  0.7271897952415155  0.5252433105823906  0.6500000000000001
  0.7271897952415155  0.5757299317471719  0.7500000000000001
  0.7776764164062967  0.5252433105823906  0.7500000000000001
  0.7776764164062968  0.5757299317471719  0.6500000000000001
  0.7271897952415155  0.6262165529119531  0.6500000000000001
  0.7271897952415155  0.6767031740767343  0.7500000000000001
  0.7776764164062967  0.6262165529119531  0.7500000000000001
  0.7776764164062968  0.6767031740767343  0.6500000000000001
  0.7271897952415155  0.7271897952415156  0.6500000000000001
  0.7271897952415155  0.7776764164062970  0.7500000000000001
  0.7776764164062967  0.7271897952415156  0.7500000000000001
  0.8281630375710780  0.3232968259232656  0.6500000000000001
  0.8281630375710780  0.3737834470880470  0.7500000000000001
  0.8281630375710780  0.4242700682528281  0.6500000000000001
  0.8281630375710780  0.4747566894176093  0.7500000000000001
  0.8281630375710780  0.5252433105823906  0.6500000000000001
  0.8281630375710780  0.5757299317471719  0.7500000000000001
  0.8281630375710780  0.6262165529119531  0.6500000000000001
  0.8281630375710780  0.6767031740767343  0.7500000000000001
  0.1718369624289218  0.3232968259232656  0.9499999999999998
  0.1718369624289218  0.3737834470880470  0.8500000000000000
  0.1718369624289218  0.4242700682528281  0.9499999999999998
  0.1718369624289218  0.4747566894176093  0.8500000000000000
  0.1718369624289218  0.5252433105823906  0.9500000000000001
  0.1718369624289218  0.5757299317471719  0.8500000000000000
  0.1718369624289218  0.6262165529119531  0.9500000000000001
  0.1718369624289218  0.6767031740767343  0.8500000000000000
  0.2223235835937030  0.2728102047584844  0.9499999999999998
  0.2728102047584843  0.2223235835937032  0.9499999999999998
  0.2728102047584843  0.2728102047584844  0.8500000000000000
  0.2223235835937030  0.3232968259232656  0.8500000000000000
  0.2223235835937030  0.3737834470880470  0.9499999999999998
  0.2728102047584843  0.3232968259232656  0.9499999999999998
  0.2728102047584843  0.3737834470880470  0.8500000000000000
  0.2223235835937030  0.4242700682528281  0.8500000000000000
  0.2223235835937030  0.4747566894176093  0.9500000000000001
  0.2728102047584843  0.4242700682528281  0.9500000000000001
  0.2728102047584843  0.4747566894176093  0.8500000000000000
  0.2223235835937031  0.5252433105823906  0.8500000000000000
  0.2223235835937031  0.5757299317471719  0.9500000000000001
  0.2728102047584843  0.5252433105823906  0.9500000000000001
  0.2728102047584843  0.5757299317471719  0.8500000000000000
  0.2223235835937031  0.6262165529119531  0.8500000000000000
  0.2223235835937031  0.6767031740767343  0.9500000000000001
  0.2728102047584843  0.6262165529119531  0.9500000000000001
  0.2728102047584843  0.6767031740767343  0.8500000000000000
  0.2223235835937031  0.7271897952415156  0.8500000000000000
  0.2728102047584843  0.7271897952415156  0.9500000000000001
  0.2728102047584843  0.7776764164062970  0.8500000000000000
  0.3232968259232655  0.1718369624289219  0.9499999999999998
  0.3737834470880468  0.1718369624289219  0.8500000000000000
  0.3232968259232655  0.2223235835937032  0.8500000000000000
  0.3232968259232655  0.2728102047584844  0.9499999999999998
  0.3737834470880468  0.2223235835937032  0.9499999999999998
  0.3737834470880468  0.2728102047584844  0.8500000000000000
  0.3232968259232655  0.3232968259232656  0.8500000000000000
  0.3232968259232655  0.3737834470880470  0.9500000000000001
  0.3737834470880468  0.3232968259232656  0.9500000000000001
  0.3737834470880468  0.3737834470880470  0.8500000000000000
  0.3232968259232655  0.4242700682528281  0.8500000000000000
  0.3232968259232655  0.4747566894176093  0.9500000000000001
  0.3737834470880468  0.4242700682528281  0.9500000000000001
  0.3737834470880468  0.4747566894176093  0.8500000000000000
  0.3232968259232656  0.5252433105823906  0.8500000000000000
  0.3232968259232656  0.5757299317471719  0.9500000000000001
  0.3737834470880468  0.5252433105823906  0.9500000000000001
  0.3737834470880468  0.5757299317471719  0.8500000000000000
  0.3232968259232656  0.6262165529119531  0.8500000000000000
  0.3232968259232656  0.6767031740767343  0.9500000000000001
  0.3737834470880468  0.6262165529119531  0.9500000000000001
  0.3737834470880468  0.6767031740767343  0.8500000000000000
  0.3232968259232656  0.7271897952415156  0.8500000000000000
  0.3232968259232656  0.7776764164062970  0.9500000000000001
  0.3737834470880468  0.7271897952415156  0.9500000000000001
  0.3737834470880468  0.7776764164062970  0.8500000000000000
  0.3232968259232656  0.8281630375710780  0.8500000000000000
  0.3737834470880468  0.8281630375710780  0.9500000000000001
  0.4242700682528280  0.1718369624289219  0.9499999999999998
  0.4747566894176092  0.1718369624289219  0.8500000000000000
  0.4242700682528280  0.2223235835937032  0.8500000000000000
  0.4242700682528280  0.2728102047584844  0.9500000000000001
  0.4747566894176092  0.2223235835937032  0.9500000000000001
  0.4747566894176092  0.2728102047584844  0.8500000000000000
  0.4242700682528280  0.3232968259232656  0.8500000000000000
  0.4242700682528280  0.3737834470880470  0.9500000000000001
  0.4747566894176093  0.3232968259232656  0.9500000000000001
  0.4747566894176093  0.3737834470880470  0.8500000000000000
  0.4242700682528280  0.4242700682528281  0.8500000000000000
  0.4242700682528280  0.4747566894176093  0.9500000000000001
  0.4747566894176093  0.4242700682528281  0.9500000000000001
  0.4747566894176093  0.4747566894176093  0.8500000000000000
  0.4242700682528280  0.5252433105823906  0.8500000000000000
  0.4242700682528280  0.5757299317471719  0.9500000000000001
  0.4747566894176093  0.5252433105823906  0.9500000000000001
  0.4747566894176093  0.5757299317471719  0.8500000000000000
  0.4242700682528280  0.6262165529119531  0.8500000000000000
  0.4242700682528280  0.6767031740767343  0.9500000000000001
  0.4747566894176093  0.6262165529119531  0.9500000000000001
  0.4747566894176093  0.6767031740767343  0.8500000000000000
  0.4242700682528280  0.7271897952415156  0.8500000000000000
  0.4242700682528280  0.7776764164062970  0.9500000000000001
  0.4747566894176093  0.7271897952415156  0.9500000000000001
  0.4747566894176093  0.7776764164062970  0.8500000000000000
  0.4242700682528280  0.8281630375710780  0.8500000000000000
  0.4747566894176093  0.8281630375710780  0.9500000000000001
  0.5252433105823905  0.1718369624289219  0.9500000000000001
  0.5757299317471717  0.1718369624289219  0.8500000000000000
  0.5252433105823905  0.2223235835937032  0.8500000000000000
  0.5252433105823905  0.2728102047584844  0.9500000000000001
  0.5757299317471717  0.2223235835937032  0.9500000000000001
  0.5757299317471717  0.2728102047584844  0.8500000000000000
  0.5252433105823905  0.3232968259232656  0.8500000000000000
  0.5252433105823905  0.3737834470880470  0.9500000000000001
  0.5757299317471717  0.3232968259232656  0.9500000000000001
  0.5757299317471718  0.3737834470880470  0.8500000000000000
  0.5252433105823905  0.4242700682528281  0.8500000000000000
  0.5252433105823905  0.4747566894176093  0.9500000000000001
  0.5757299317471717  0.4242700682528281  0.9500000000000001
  0.5757299317471718  0.4747566894176093  0.8500000000000000
  0.5252433105823905  0.5252433105823906  0.8500000000000000
  0.5252433105823905  0.5757299317471719  0.9500000000000001
  0.5757299317471717  0.5252433105823906  0.9500000000000001
  0.5757299317471718  0.5757299317471719  0.8500000000000000
  0.5252433105823905  0.6262165529119531  0.8500000000000000
  0.5252433105823905  0.6767031740767343  0.9500000000000001
  0.5757299317471717  0.6262165529119531  0.9500000000000001
  0.5757299317471718  0.6767031740767343  0.8500000000000000
  0.5252433105823905  0.7271897952415156  0.8500000000000000
  0.5252433105823905  0.7776764164062970  0.9500000000000001
  0.5757299317471717  0.7271897952415156  0.9500000000000001
  0.5757299317471718  0.7776764164062970  0.8500000000000000
  0.5252433105823905  0.8281630375710780  0.8500000000000000
  0.5757299317471717  0.8281630375710780  0.9500000000000001
  0.6262165529119530  0.1718369624289219  0.9500000000000001
  0.6767031740767342  0.1718369624289219  0.8500000000000000
  0.6262165529119530  0.2223235835937032  0.8500000000000000
  0.6262165529119530  0.2728102047584844  0.9500000000000001
  0.6767031740767342  0.2223235835937032  0.9500000000000001
  0.6767031740767342  0.2728102047584844  0.8500000000000000
  0.6262165529119530  0.3232968259232656  0.8500000000000000
  0.6262165529119530  0.3737834470880470  0.9500000000000001
  0.6767031740767343  0.3232968259232656  0.9500000000000001
  0.6767031740767343  0.3737834470880470  0.8500000000000000
  0.6262165529119530  0.4242700682528281  0.8500000000000000
  0.6262165529119530  0.4747566894176093  0.9500000000000001
  0.6767031740767343  0.4242700682528281  0.9500000000000001
  0.6767031740767343  0.4747566894176093  0.8500000000000000
  0.6262165529119530  0.5252433105823906  0.8500000000000000
  0.6262165529119530  0.5757299317471719  0.9500000000000001
  0.6767031740767343  0.5252433105823906  0.9500000000000001
  0.6767031740767343  0.5757299317471719  0.8500000000000000
  0.6262165529119530  0.6262165529119531  0.8500000000000000
  0.6262165529119530  0.6767031740767343  0.9500000000000001
  0.6767031740767343  0.6262165529119531  0.9500000000000001
  0.6767031740767343  0.6767031740767343  0.8500000000000000
  0.6262165529119530  0.7271897952415156  0.8500000000000000
  0.6262165529119530  0.7776764164062970  0.9500000000000001
  0.6767031740767343  0.7271897952415156  0.9500000000000001
  0.6767031740767343  0.7776764164062970  0.8500000000000001
  0.6262165529119530  0.8281630375710780  0.8500000000000001
  0.6767031740767343  0.8281630375710780  0.9500000000000001
  0.7271897952415154  0.2223235835937032  0.8500000000000000
  0.7271897952415154  0.2728102047584844  0.9500000000000001
  0.7776764164062967  0.2728102047584844  0.8500000000000000
  0.7271897952415155  0.3232968259232656  0.8500000000000000
  0.7271897952415155  0.3737834470880470  0.9500000000000001
  0.7776764164062967  0.3232968259232656  0.9500000000000001
  0.7776764164062968  0.3737834470880470  0.8500000000000000
  0.7271897952415155  0.4242700682528281  0.8500000000000000
  0.7271897952415155  0.4747566894176093  0.9500000000000001
  0.7776764164062967  0.4242700682528281  0.9500000000000001
  0.7776764164062968  0.4747566894176093  0.8500000000000000
  0.7271897952415155  0.5252433105823906  0.8500000000000000
  0.7271897952415155  0.5757299317471719  0.9500000000000001
  0.7776764164062967  0.5252433105823906  0.9500000000000001
  0.7776764164062968  0.5757299317471719  0.8500000000000000
  0.7271897952415155  0.6262165529119531  0.8500000000000000
  0.7271897952415155  0.6767031740767343  0.9500000000000001
  0.7776764164062967  0.6262165529119531  0.9500000000000001
  0.7776764164062968  0.6767031740767343  0.8500000000000001
  0.7271897952415155  0.7271897952415156  0.8500000000000001
  0.7271897952415155  0.7776764164062970  0.9500000000000001
  0.7776764164062967  0.7271897952415156  0.9500000000000001
  0.8281630375710780  0.3232968259232656  0.8500000000000000
  0.8281630375710780  0.3737834470880470  0.9500000000000001
  0.8281630375710780  0.4242700682528281  0.8500000000000000
  0.8281630375710780  0.4747566894176093  0.9500000000000001
  0.8281630375710780  0.5252433105823906  0.8500000000000000
  0.8281630375710780  0.5757299317471719  0.9500000000000001
  0.8281630375710780  0.6262165529119531  0.8500000000000001
  0.8281630375710780  0.6767031740767343  0.9500000000000001